Minimize
 obj: 0 X_0_1
Subject To
 out_0:
  + 1 X_0_1 + 1 X_0_2 + 1 X_0_3 + 1 X_0_4 + 1 X_0_5 + 1 X_0_6 + 1 X_0_7 + 1 X_0_8
  + 1 X_0_9
  = 1
 in_0:
  + 1 X_1_0 + 1 X_2_0 + 1 X_3_0 + 1 X_4_0 + 1 X_5_0 + 1 X_6_0 + 1 X_7_0 + 1 X_8_0
  + 1 X_9_0
  = 1
 out_1:
  + 1 X_1_0 + 1 X_1_2 + 1 X_1_3 + 1 X_1_4 + 1 X_1_5 + 1 X_1_6 + 1 X_1_7 + 1 X_1_8
  + 1 X_1_9
  = 1
 in_1:
  + 1 X_0_1 + 1 X_2_1 + 1 X_3_1 + 1 X_4_1 + 1 X_5_1 + 1 X_6_1 + 1 X_7_1 + 1 X_8_1
  + 1 X_9_1
  = 1
 out_2:
  + 1 X_2_0 + 1 X_2_1 + 1 X_2_3 + 1 X_2_4 + 1 X_2_5 + 1 X_2_6 + 1 X_2_7 + 1 X_2_8
  + 1 X_2_9
  = 1
 in_2:
  + 1 X_0_2 + 1 X_1_2 + 1 X_3_2 + 1 X_4_2 + 1 X_5_2 + 1 X_6_2 + 1 X_7_2 + 1 X_8_2
  + 1 X_9_2
  = 1
 out_3:
  + 1 X_3_0 + 1 X_3_1 + 1 X_3_2 + 1 X_3_4 + 1 X_3_5 + 1 X_3_6 + 1 X_3_7 + 1 X_3_8
  + 1 X_3_9
  = 1
 in_3:
  + 1 X_0_3 + 1 X_1_3 + 1 X_2_3 + 1 X_4_3 + 1 X_5_3 + 1 X_6_3 + 1 X_7_3 + 1 X_8_3
  + 1 X_9_3
  = 1
 out_4:
  + 1 X_4_0 + 1 X_4_1 + 1 X_4_2 + 1 X_4_3 + 1 X_4_5 + 1 X_4_6 + 1 X_4_7 + 1 X_4_8
  + 1 X_4_9
  = 1
 in_4:
  + 1 X_0_4 + 1 X_1_4 + 1 X_2_4 + 1 X_3_4 + 1 X_5_4 + 1 X_6_4 + 1 X_7_4 + 1 X_8_4
  + 1 X_9_4
  = 1
 out_5:
  + 1 X_5_0 + 1 X_5_1 + 1 X_5_2 + 1 X_5_3 + 1 X_5_4 + 1 X_5_6 + 1 X_5_7 + 1 X_5_8
  + 1 X_5_9
  = 1
 in_5:
  + 1 X_0_5 + 1 X_1_5 + 1 X_2_5 + 1 X_3_5 + 1 X_4_5 + 1 X_6_5 + 1 X_7_5 + 1 X_8_5
  + 1 X_9_5
  = 1
 out_6:
  + 1 X_6_0 + 1 X_6_1 + 1 X_6_2 + 1 X_6_3 + 1 X_6_4 + 1 X_6_5 + 1 X_6_7 + 1 X_6_8
  + 1 X_6_9
  = 1
 in_6:
  + 1 X_0_6 + 1 X_1_6 + 1 X_2_6 + 1 X_3_6 + 1 X_4_6 + 1 X_5_6 + 1 X_7_6 + 1 X_8_6
  + 1 X_9_6
  = 1
 out_7:
  + 1 X_7_0 + 1 X_7_1 + 1 X_7_2 + 1 X_7_3 + 1 X_7_4 + 1 X_7_5 + 1 X_7_6 + 1 X_7_8
  + 1 X_7_9
  = 1
 in_7:
  + 1 X_0_7 + 1 X_1_7 + 1 X_2_7 + 1 X_3_7 + 1 X_4_7 + 1 X_5_7 + 1 X_6_7 + 1 X_8_7
  + 1 X_9_7
  = 1
 out_8:
  + 1 X_8_0 + 1 X_8_1 + 1 X_8_2 + 1 X_8_3 + 1 X_8_4 + 1 X_8_5 + 1 X_8_6 + 1 X_8_7
  + 1 X_8_9
  = 1
 in_8:
  + 1 X_0_8 + 1 X_1_8 + 1 X_2_8 + 1 X_3_8 + 1 X_4_8 + 1 X_5_8 + 1 X_6_8 + 1 X_7_8
  + 1 X_9_8
  = 1
 out_9:
  + 1 X_9_0 + 1 X_9_1 + 1 X_9_2 + 1 X_9_3 + 1 X_9_4 + 1 X_9_5 + 1 X_9_6 + 1 X_9_7
  + 1 X_9_8
  = 1
 in_9:
  + 1 X_0_9 + 1 X_1_9 + 1 X_2_9 + 1 X_3_9 + 1 X_4_9 + 1 X_5_9 + 1 X_6_9 + 1 X_7_9
  + 1 X_8_9
  = 1
 mtz_1_2:
  + 1 U1 - 1 U2 + 9 X_1_2
  <= 8
 mtz_1_3:
  + 1 U1 - 1 U3 + 9 X_1_3
  <= 8
 mtz_1_4:
  + 1 U1 - 1 U4 + 9 X_1_4
  <= 8
 mtz_1_5:
  + 1 U1 - 1 U5 + 9 X_1_5
  <= 8
 mtz_1_6:
  + 1 U1 - 1 U6 + 9 X_1_6
  <= 8
 mtz_1_7:
  + 1 U1 - 1 U7 + 9 X_1_7
  <= 8
 mtz_1_8:
  + 1 U1 - 1 U8 + 9 X_1_8
  <= 8
 mtz_1_9:
  + 1 U1 - 1 U9 + 9 X_1_9
  <= 8
 mtz_2_1:
  + 1 U2 - 1 U1 + 9 X_2_1
  <= 8
 mtz_2_3:
  + 1 U2 - 1 U3 + 9 X_2_3
  <= 8
 mtz_2_4:
  + 1 U2 - 1 U4 + 9 X_2_4
  <= 8
 mtz_2_5:
  + 1 U2 - 1 U5 + 9 X_2_5
  <= 8
 mtz_2_6:
  + 1 U2 - 1 U6 + 9 X_2_6
  <= 8
 mtz_2_7:
  + 1 U2 - 1 U7 + 9 X_2_7
  <= 8
 mtz_2_8:
  + 1 U2 - 1 U8 + 9 X_2_8
  <= 8
 mtz_2_9:
  + 1 U2 - 1 U9 + 9 X_2_9
  <= 8
 mtz_3_1:
  + 1 U3 - 1 U1 + 9 X_3_1
  <= 8
 mtz_3_2:
  + 1 U3 - 1 U2 + 9 X_3_2
  <= 8
 mtz_3_4:
  + 1 U3 - 1 U4 + 9 X_3_4
  <= 8
 mtz_3_5:
  + 1 U3 - 1 U5 + 9 X_3_5
  <= 8
 mtz_3_6:
  + 1 U3 - 1 U6 + 9 X_3_6
  <= 8
 mtz_3_7:
  + 1 U3 - 1 U7 + 9 X_3_7
  <= 8
 mtz_3_8:
  + 1 U3 - 1 U8 + 9 X_3_8
  <= 8
 mtz_3_9:
  + 1 U3 - 1 U9 + 9 X_3_9
  <= 8
 mtz_4_1:
  + 1 U4 - 1 U1 + 9 X_4_1
  <= 8
 mtz_4_2:
  + 1 U4 - 1 U2 + 9 X_4_2
  <= 8
 mtz_4_3:
  + 1 U4 - 1 U3 + 9 X_4_3
  <= 8
 mtz_4_5:
  + 1 U4 - 1 U5 + 9 X_4_5
  <= 8
 mtz_4_6:
  + 1 U4 - 1 U6 + 9 X_4_6
  <= 8
 mtz_4_7:
  + 1 U4 - 1 U7 + 9 X_4_7
  <= 8
 mtz_4_8:
  + 1 U4 - 1 U8 + 9 X_4_8
  <= 8
 mtz_4_9:
  + 1 U4 - 1 U9 + 9 X_4_9
  <= 8
 mtz_5_1:
  + 1 U5 - 1 U1 + 9 X_5_1
  <= 8
 mtz_5_2:
  + 1 U5 - 1 U2 + 9 X_5_2
  <= 8
 mtz_5_3:
  + 1 U5 - 1 U3 + 9 X_5_3
  <= 8
 mtz_5_4:
  + 1 U5 - 1 U4 + 9 X_5_4
  <= 8
 mtz_5_6:
  + 1 U5 - 1 U6 + 9 X_5_6
  <= 8
 mtz_5_7:
  + 1 U5 - 1 U7 + 9 X_5_7
  <= 8
 mtz_5_8:
  + 1 U5 - 1 U8 + 9 X_5_8
  <= 8
 mtz_5_9:
  + 1 U5 - 1 U9 + 9 X_5_9
  <= 8
 mtz_6_1:
  + 1 U6 - 1 U1 + 9 X_6_1
  <= 8
 mtz_6_2:
  + 1 U6 - 1 U2 + 9 X_6_2
  <= 8
 mtz_6_3:
  + 1 U6 - 1 U3 + 9 X_6_3
  <= 8
 mtz_6_4:
  + 1 U6 - 1 U4 + 9 X_6_4
  <= 8
 mtz_6_5:
  + 1 U6 - 1 U5 + 9 X_6_5
  <= 8
 mtz_6_7:
  + 1 U6 - 1 U7 + 9 X_6_7
  <= 8
 mtz_6_8:
  + 1 U6 - 1 U8 + 9 X_6_8
  <= 8
 mtz_6_9:
  + 1 U6 - 1 U9 + 9 X_6_9
  <= 8
 mtz_7_1:
  + 1 U7 - 1 U1 + 9 X_7_1
  <= 8
 mtz_7_2:
  + 1 U7 - 1 U2 + 9 X_7_2
  <= 8
 mtz_7_3:
  + 1 U7 - 1 U3 + 9 X_7_3
  <= 8
 mtz_7_4:
  + 1 U7 - 1 U4 + 9 X_7_4
  <= 8
 mtz_7_5:
  + 1 U7 - 1 U5 + 9 X_7_5
  <= 8
 mtz_7_6:
  + 1 U7 - 1 U6 + 9 X_7_6
  <= 8
 mtz_7_8:
  + 1 U7 - 1 U8 + 9 X_7_8
  <= 8
 mtz_7_9:
  + 1 U7 - 1 U9 + 9 X_7_9
  <= 8
 mtz_8_1:
  + 1 U8 - 1 U1 + 9 X_8_1
  <= 8
 mtz_8_2:
  + 1 U8 - 1 U2 + 9 X_8_2
  <= 8
 mtz_8_3:
  + 1 U8 - 1 U3 + 9 X_8_3
  <= 8
 mtz_8_4:
  + 1 U8 - 1 U4 + 9 X_8_4
  <= 8
 mtz_8_5:
  + 1 U8 - 1 U5 + 9 X_8_5
  <= 8
 mtz_8_6:
  + 1 U8 - 1 U6 + 9 X_8_6
  <= 8
 mtz_8_7:
  + 1 U8 - 1 U7 + 9 X_8_7
  <= 8
 mtz_8_9:
  + 1 U8 - 1 U9 + 9 X_8_9
  <= 8
 mtz_9_1:
  + 1 U9 - 1 U1 + 9 X_9_1
  <= 8
 mtz_9_2:
  + 1 U9 - 1 U2 + 9 X_9_2
  <= 8
 mtz_9_3:
  + 1 U9 - 1 U3 + 9 X_9_3
  <= 8
 mtz_9_4:
  + 1 U9 - 1 U4 + 9 X_9_4
  <= 8
 mtz_9_5:
  + 1 U9 - 1 U5 + 9 X_9_5
  <= 8
 mtz_9_6:
  + 1 U9 - 1 U6 + 9 X_9_6
  <= 8
 mtz_9_7:
  + 1 U9 - 1 U7 + 9 X_9_7
  <= 8
 mtz_9_8:
  + 1 U9 - 1 U8 + 9 X_9_8
  <= 8
 obj1:
  + 561 X_0_1 + 493 X_0_2 + 631 X_0_3 + 585 X_0_4 + 41 X_0_5 + 673 X_0_6 + 116 X_0_7 + 258 X_0_8
  + 503 X_0_9 + 561 X_1_0 + 69 X_1_2 + 356 X_1_3 + 27 X_1_4 + 566 X_1_5 + 130 X_1_6 + 452 X_1_7
  + 817 X_1_8 + 59 X_1_9 + 493 X_2_0 + 69 X_2_1 + 340 X_2_3 + 96 X_2_4 + 499 X_2_5 + 185 X_2_6
  + 385 X_2_7 + 748 X_2_8 + 25 X_2_9 + 631 X_3_0 + 356 X_3_1 + 340 X_3_2 + 374 X_3_4 + 657 X_3_5
  + 315 X_3_6 + 566 X_3_7 + 836 X_3_8 + 363 X_3_9 + 585 X_4_0 + 27 X_4_1 + 96 X_4_2 + 374 X_4_3
  + 588 X_4_5 + 123 X_4_6 + 474 X_4_7 + 841 X_4_8 + 82 X_4_9 + 41 X_5_0 + 566 X_5_1 + 499 X_5_2
  + 657 X_5_3 + 588 X_5_4 + 681 X_5_6 + 114 X_5_7 + 265 X_5_8 + 507 X_5_9 + 673 X_6_0 + 130 X_6_1
  + 185 X_6_2 + 315 X_6_3 + 123 X_6_4 + 681 X_6_5 + 568 X_6_7 + 923 X_6_8 + 185 X_6_9 + 116 X_7_0
  + 452 X_7_1 + 385 X_7_2 + 566 X_7_3 + 474 X_7_4 + 114 X_7_5 + 568 X_7_6 + 373 X_7_8 + 393 X_7_9
  + 258 X_8_0 + 817 X_8_1 + 748 X_8_2 + 836 X_8_3 + 841 X_8_4 + 265 X_8_5 + 923 X_8_6 + 373 X_8_7
  + 759 X_8_9 + 503 X_9_0 + 59 X_9_1 + 25 X_9_2 + 363 X_9_3 + 82 X_9_4 + 507 X_9_5 + 185 X_9_6
  + 393 X_9_7 + 759 X_9_8
  <= 1
 obj2:
  + 958 X_0_1 + 663 X_0_2 + 777 X_0_3 + 286 X_0_4 + 995 X_0_5 + 709 X_0_6 + 845 X_0_7 + 373 X_0_8
  + 586 X_0_9 + 958 X_1_0 + 786 X_1_2 + 568 X_1_3 + 673 X_1_4 + 510 X_1_5 + 897 X_1_6 + 644 X_1_7
  + 584 X_1_8 + 520 X_1_9 + 663 X_2_0 + 786 X_2_1 + 252 X_2_3 + 520 X_2_4 + 474 X_2_5 + 113 X_2_6
  + 249 X_2_7 + 551 X_2_8 + 294 X_2_9 + 777 X_3_0 + 568 X_3_1 + 252 X_3_2 + 550 X_3_4 + 237 X_3_5
  + 349 X_3_6 + 96 X_3_7 + 536 X_3_8 + 214 X_3_9 + 286 X_4_0 + 673 X_4_1 + 520 X_4_2 + 550 X_4_3
  + 743 X_4_5 + 604 X_4_6 + 633 X_4_7 + 97 X_4_8 + 338 X_4_9 + 995 X_5_0 + 510 X_5_1 + 474 X_5_2
  + 237 X_5_3 + 743 X_5_4 + 553 X_5_6 + 231 X_5_7 + 706 X_5_8 + 409 X_5_9 + 709 X_6_0 + 897 X_6_1
  + 113 X_6_2 + 349 X_6_3 + 604 X_6_4 + 553 X_6_5 + 322 X_6_7 + 646 X_6_8 + 406 X_6_9 + 845 X_7_0
  + 644 X_7_1 + 249 X_7_2 + 96 X_7_3 + 633 X_7_4 + 231 X_7_5 + 322 X_7_6 + 626 X_7_8 + 304 X_7_9
  + 373 X_8_0 + 584 X_8_1 + 551 X_8_2 + 536 X_8_3 + 97 X_8_4 + 706 X_8_5 + 646 X_8_6 + 626 X_8_7
  + 322 X_8_9 + 586 X_9_0 + 520 X_9_1 + 294 X_9_2 + 214 X_9_3 + 338 X_9_4 + 409 X_9_5 + 406 X_9_6
  + 304 X_9_7 + 322 X_9_8
  <= 2
 obj3:
  + 307 X_0_1 + 879 X_0_2 + 690 X_0_3 + 747 X_0_4 + 630 X_0_5 + 662 X_0_6 + 507 X_0_7 + 663 X_0_8
  + 268 X_0_9 + 307 X_1_0 + 735 X_1_2 + 456 X_1_3 + 689 X_1_4 + 500 X_1_5 + 563 X_1_6 + 530 X_1_7
  + 477 X_1_8 + 54 X_1_9 + 879 X_2_0 + 735 X_2_1 + 347 X_2_3 + 241 X_2_4 + 249 X_2_5 + 228 X_2_6
  + 465 X_2_7 + 263 X_2_8 + 715 X_2_9 + 690 X_3_0 + 456 X_3_1 + 347 X_3_2 + 447 X_3_4 + 241 X_3_5
  + 316 X_3_6 + 496 X_3_7 + 123 X_3_8 + 457 X_3_9 + 747 X_4_0 + 689 X_4_1 + 241 X_4_2 + 447 X_4_3
  + 220 X_4_5 + 139 X_4_6 + 263 X_4_7 + 325 X_4_8 + 654 X_4_9 + 630 X_5_0 + 500 X_5_1 + 249 X_5_2
  + 241 X_5_3 + 220 X_5_4 + 80 X_5_6 + 277 X_5_7 + 119 X_5_8 + 475 X_5_9 + 662 X_6_0 + 563 X_6_1
  + 228 X_6_2 + 316 X_6_3 + 139 X_6_4 + 80 X_6_5 + 245 X_6_7 + 192 X_6_8 + 533 X_6_9 + 507 X_7_0
  + 530 X_7_1 + 465 X_7_2 + 496 X_7_3 + 263 X_7_4 + 277 X_7_5 + 245 X_7_6 + 387 X_7_8 + 483 X_7_9
  + 663 X_8_0 + 477 X_8_1 + 263 X_8_2 + 123 X_8_3 + 325 X_8_4 + 119 X_8_5 + 192 X_8_6 + 387 X_8_7
  + 464 X_8_9 + 268 X_9_0 + 54 X_9_1 + 715 X_9_2 + 457 X_9_3 + 654 X_9_4 + 475 X_9_5 + 533 X_9_6
  + 483 X_9_7 + 464 X_9_8
  <= 3
 obj4:
  + 184 X_0_1 + 181 X_0_2 + 547 X_0_3 + 715 X_0_4 + 532 X_0_5 + 282 X_0_6 + 494 X_0_7 + 223 X_0_8
  + 391 X_0_9 + 184 X_1_0 + 193 X_1_2 + 406 X_1_3 + 543 X_1_4 + 386 X_1_5 + 361 X_1_6 + 373 X_1_7
  + 216 X_1_8 + 555 X_1_9 + 181 X_2_0 + 193 X_2_1 + 401 X_2_3 + 603 X_2_4 + 393 X_2_5 + 170 X_2_6
  + 336 X_2_7 + 362 X_2_8 + 555 X_2_9 + 547 X_3_0 + 406 X_3_1 + 401 X_3_2 + 237 X_3_4 + 28 X_3_5
  + 502 X_3_6 + 81 X_3_7 + 614 X_3_8 + 938 X_3_9 + 715 X_4_0 + 543 X_4_1 + 603 X_4_2 + 237 X_4_3
  + 228 X_4_5 + 727 X_4_6 + 318 X_4_7 + 717 X_4_8 + 1098 X_4_9 + 532 X_5_0 + 386 X_5_1 + 393 X_5_2
  + 28 X_5_3 + 228 X_5_4 + 502 X_5_6 + 92 X_5_7 + 592 X_5_8 + 924 X_5_9 + 282 X_6_0 + 361 X_6_1
  + 170 X_6_2 + 502 X_6_3 + 727 X_6_4 + 502 X_6_5 + 424 X_6_7 + 500 X_6_8 + 568 X_6_9 + 494 X_7_0
  + 373 X_7_1 + 336 X_7_2 + 81 X_7_3 + 318 X_7_4 + 92 X_7_5 + 424 X_7_6 + 588 X_7_8 + 884 X_7_9
  + 223 X_8_0 + 216 X_8_1 + 362 X_8_2 + 614 X_8_3 + 717 X_8_4 + 592 X_8_5 + 500 X_8_6 + 588 X_8_7
  + 428 X_8_9 + 391 X_9_0 + 555 X_9_1 + 555 X_9_2 + 938 X_9_3 + 1098 X_9_4 + 924 X_9_5 + 568 X_9_6
  + 884 X_9_7 + 428 X_9_8
  <= 4
Bounds
 1 <= U1 <= 9
 1 <= U2 <= 9
 1 <= U3 <= 9
 1 <= U4 <= 9
 1 <= U5 <= 9
 1 <= U6 <= 9
 1 <= U7 <= 9
 1 <= U8 <= 9
 1 <= U9 <= 9
Binary
 X_0_1
 X_0_2
 X_0_3
 X_0_4
 X_0_5
 X_0_6
 X_0_7
 X_0_8
 X_0_9
 X_1_0
 X_1_2
 X_1_3
 X_1_4
 X_1_5
 X_1_6
 X_1_7
 X_1_8
 X_1_9
 X_2_0
 X_2_1
 X_2_3
 X_2_4
 X_2_5
 X_2_6
 X_2_7
 X_2_8
 X_2_9
 X_3_0
 X_3_1
 X_3_2
 X_3_4
 X_3_5
 X_3_6
 X_3_7
 X_3_8
 X_3_9
 X_4_0
 X_4_1
 X_4_2
 X_4_3
 X_4_5
 X_4_6
 X_4_7
 X_4_8
 X_4_9
 X_5_0
 X_5_1
 X_5_2
 X_5_3
 X_5_4
 X_5_6
 X_5_7
 X_5_8
 X_5_9
 X_6_0
 X_6_1
 X_6_2
 X_6_3
 X_6_4
 X_6_5
 X_6_7
 X_6_8
 X_6_9
 X_7_0
 X_7_1
 X_7_2
 X_7_3
 X_7_4
 X_7_5
 X_7_6
 X_7_8
 X_7_9
 X_8_0
 X_8_1
 X_8_2
 X_8_3
 X_8_4
 X_8_5
 X_8_6
 X_8_7
 X_8_9
 X_9_0
 X_9_1
 X_9_2
 X_9_3
 X_9_4
 X_9_5
 X_9_6
 X_9_7
 X_9_8
End
